c This Formular is generated by mcnf
c
c    horn? no 
c    forced? no 
c    mixed sat? no 
c    clause length = 3 
c
p cnf 20  91 
 -1 -2 14 0
10 -5 3 0
17 5 -12 0
-12 7 13 0
5 9 -12 0
8 -7 -5 0
-13 -2 -15 0
-11 19 -3 0
-7 -13 5 0
-8 -2 16 0
-20 18 -7 0
-19 -1 14 0
-4 -14 8 0
6 -12 -8 0
-19 -1 -14 0
-11 4 8 0
-19 18 20 0
6 -10 3 0
-16 -19 7 0
-17 11 16 0
-1 -11 14 0
%
0

56 19 76 63 5 6 74 45 91 86 46 39 81 15 30 83 85 31 5 78
